WARNING: for repeatability, setting FPU to use double precision
============================[ Problem Statistics ]=============================
|                                                                             |
|  Number of variables:           100                                         |
|  Number of clauses:             449                                         |
|  Parse time:                   0.00 s                                       |
|  Eliminated clauses:           0.00 Mb                                      |
|  Simplification time:          0.00 s                                       |
|                                                                             |
============================[ Search Statistics ]==============================
| Conflicts |          ORIGINAL         |          LEARNT          | Progress |
|           |    Vars  Clauses Literals |    Limit  Clauses Lit/Cl |          |
===============================================================================
|       100 |      98      446     1349 |      163      100      7 |  0.010 % |
|       250 |      97      438     1325 |      179       83      6 |  1.011 % |
===============================================================================
restarts              : 3
conflicts             : 294            (85890 /sec)
decisions             : 368            (0.00 % random) (107508 /sec)
propagations          : 6507           (1900964 /sec)
conflict literals     : 1694           (20.32 % deleted)
Memory used           : 13.00 MB
CPU time              : 0.003423 s

SATISFIABLE
